# 79818
param n := 30;
param s := 1;
set E :=  (0,24) (1,16) (1,18) (2,10) (3,10) (4,15) (4,23) (5,7) (5,24) (6,8) (6,17) (7,9) (8,21) (8,27) (10,24) (11,25) (12,15) (12,21) (12,22) (13,15) (14,19) (14,24) (14,25) (16,28) (17,20) (17,26) (19,26) (25,28) (25,29) (26,28);
